&CONTROL
  calculation = 'scf'
  etot_conv_thr =   7.2000000000d-04
  forc_conv_thr =   1.0000000000d-04
  prefix = 'aiida'
   pseudo_dir    = '/home/zczl829/q-e/pseudo/'
   outdir='/tmp//'
  tprnfor = .true.
  tstress = .true.
  verbosity = 'high'
/
&SYSTEM
  degauss =   1.4699723600d-02
  ecutrho =   6.0000000000d+02
  ecutwfc =   7.5000000000d+01
  ibrav = 0
  nat = 72
  nosym = .false.
  nspin = 2
  ntyp = 2
  occupations = 'smearing'
  smearing = 'cold'
  starting_magnetization(1) =   1.0000000000d-01
  starting_magnetization(2) =   4.1666666667d-01
/
&ELECTRONS
  conv_thr =   1.4400000000d-08
  electron_maxstep = 80
  mixing_beta =   4.0000000000d-01
/
ATOMIC_SPECIES
Ti     47.86700  Ti.pbe-spn-kjpaw_psl.1.0.0.UPF
O      15.99940  O.pbe-nl-kjpaw_psl.1.0.0.UPF
ATOMIC_POSITIONS crystal
Ti           0.0000000000       0.7952888285       0.1596836525
Ti           0.0000000000       0.8039770363       0.5066936735
Ti           0.2856603774       0.7952888285       0.1596836525
Ti           0.2856603774       0.8039770363       0.5066936735
Ti           0.5713207547       0.7952888285       0.1596836525
Ti           0.5713207547       0.8039770363       0.5066936735
Ti           0.1428301887       0.2717429495       0.1596836525
Ti           0.1428301887       0.2804311572       0.5066936735
Ti           0.4284905660       0.2717429495       0.1596836525
Ti           0.4284905660       0.2804311572       0.5066936735
Ti           0.7141509434       0.2717429495       0.1596836525
Ti           0.7141509434       0.2804311572       0.5066936735
Ti           0.1428301887       0.0077980282       0.0729310979
Ti           0.1428301887       0.0164861978       0.4199412176
Ti           0.4284905660       0.0077980282       0.0729310979
Ti           0.4284905660       0.0164861978       0.4199412176
Ti           0.7141509434       0.0077980282       0.0729310979
Ti           0.7141509434       0.0164861978       0.4199412176
Ti           0.0000000000       0.5313439072       0.0729310979
Ti           0.0000000000       0.5400320769       0.4199412176
Ti           0.2856603774       0.5313439072       0.0729310979
Ti           0.2856603774       0.5400320769       0.4199412176
Ti           0.5713207547       0.5313439072       0.0729310979
Ti           0.5713207547       0.5400320769       0.4199412176
O            0.0000000000       0.9664383544       0.0867524559
O            0.0000000000       0.9751266262       0.4337625756
O            0.2856603774       0.9664383544       0.0867524559
O            0.2856603774       0.9751266262       0.4337625756
O            0.5713207547       0.9664383544       0.0867524559
O            0.5713207547       0.9751266262       0.4337625756
O            0.1428301887       0.4899842975       0.0867525546
O            0.1428301887       0.4986725053       0.4337625756
O            0.4284905660       0.4899842975       0.0867525546
O            0.4284905660       0.4986725053       0.4337625756
O            0.7141509434       0.4899842975       0.0867525546
O            0.7141509434       0.4986725053       0.4337625756
O            0.1428301887       0.2260392740       0.0000000000
O            0.1428301887       0.2347274818       0.3470100210
O            0.4284905660       0.2260392740       0.0000000000
O            0.4284905660       0.2347274818       0.3470100210
O            0.7141509434       0.2260392740       0.0000000000
O            0.7141509434       0.2347274818       0.3470100210
O            0.0000000000       0.7495851531       0.0000000000
O            0.0000000000       0.7582733608       0.3470100210
O            0.2856603774       0.7495851531       0.0000000000
O            0.2856603774       0.7582733608       0.3470100210
O            0.5713207547       0.7495851531       0.0000000000
O            0.5713207547       0.7582733608       0.3470100210
O            0.0000000000       0.3131025592       0.1458621959
O            0.0000000000       0.3217908310       0.4928723156
O            0.2856603774       0.3131025592       0.1458621959
O            0.2856603774       0.3217908310       0.4928723156
O            0.5713207547       0.3131025592       0.1458621959
O            0.5713207547       0.3217908310       0.4928723156
O            0.1428301887       0.8366484383       0.1458621959
O            0.1428301887       0.8453367101       0.4928723156
O            0.4284905660       0.8366484383       0.1458621959
O            0.4284905660       0.8453367101       0.4928723156
O            0.7141509434       0.8366484383       0.1458621959
O            0.7141509434       0.8453367101       0.4928723156
O            0.1428301887       0.0535017036       0.2326147505
O            0.1428301887       0.0621899114       0.5796247715
O            0.4284905660       0.0535017036       0.2326147505
O            0.4284905660       0.0621899114       0.5796247715
O            0.7141509434       0.0535017036       0.2326147505
O            0.7141509434       0.0621899114       0.5796247715
O            0.0000000000       0.5770475827       0.2326147505
O            0.0000000000       0.5857357905       0.5796247715
O            0.2856603774       0.5770475827       0.2326147505
O            0.2856603774       0.5857357905       0.5796247715
O            0.5713207547       0.5770475827       0.2326147505
O            0.5713207547       0.5857357905       0.5796247715
K_POINTS automatic
3 4 4 0 0 0
CELL_PARAMETERS angstrom
     13.2500000000       0.0000000000       0.0000000000
      0.0000000000       9.7837290000       0.0000000000
      0.0000000000       3.7850000000      10.1356900000
