&CONTROL
    calculation   = "relax"
    forc_conv_thr =  9.99999e-04
    max_seconds   =  8.64000e+04
    nstep         = 50
    pseudo_dir    = '/home/zczl829/q-e/pseudo/'
    outdir='/tmp//'
    restart_mode  = "from_scratch"
/

&SYSTEM
    a                         =  1.94625e+01
    b                         =  2.01361e+01
    c                         =  1.58749e+01
    degauss                   =  1.00000e-02
    ecutrho                   =  5.75452e+02
    ecutwfc                   =  2.93995e+01
    hubbard_u(1)              =  3.00000e+00
    ibrav                     = 8
    lda_plus_u                = .TRUE.
    nat                       = 72
    nspin                     = 2
    ntyp                      = 2
    occupations               = "smearing"
    smearing                  = "gaussian"
    starting_magnetization(1) =  2.00000e-01
    starting_magnetization(2) =  0.00000e+00
/

&ELECTRONS
    conv_thr         =  1.00000e-06
    electron_maxstep = 100
    mixing_beta      =  4.00000e-01
    startingpot      = "atomic"
    startingwfc      = "atomic+random"
/

&IONS
    ion_dynamics = "bfgs"
/

&CELL
/

K_POINTS {automatic}
 4  4  3  0 0 0

ATOMIC_SPECIES
Ti     47.86700  Ti.pbe-spn-kjpaw_psl.1.0.0.UPF
O      15.99940  O.pbe-nl-kjpaw_psl.1.0.0.UPF

ATOMIC_POSITIONS {angstrom}
Ti      5.000000  13.385293   6.618504
Ti      5.000000  14.783729  10.135690
Ti      8.785000  13.385293   6.618504
Ti      8.785000  14.783729  10.135690
Ti     12.570000  13.385293   6.618504
Ti     12.570000  14.783729  10.135690
Ti      6.892500   8.263062   6.618504
Ti      6.892500   9.661498  10.135690
Ti     10.677500   8.263062   6.618504
Ti     10.677500   9.661498  10.135690
Ti     14.462500   8.263062   6.618504
Ti     14.462500   9.661498  10.135690
Ti      6.892500   5.352338   5.739207
Ti      6.892500   6.750774   9.256394
Ti     10.677500   5.352338   5.739207
Ti     10.677500   6.750774   9.256394
Ti     14.462500   5.352338   5.739207
Ti     14.462500   6.750774   9.256394
Ti      5.000000  10.474569   5.739207
Ti      5.000000  11.873005   9.256394
Ti      8.785000  10.474569   5.739207
Ti      8.785000  11.873005   9.256394
Ti     12.570000  10.474569   5.739207
Ti     12.570000  11.873005   9.256394
O       5.000000   5.000000   5.879296
O       5.000000   6.398437   9.396483
O       8.785000   5.000000   5.879296
O       8.785000   6.398437   9.396483
O      12.570000   5.000000   5.879296
O      12.570000   6.398437   9.396483
O       6.892500  10.122232   5.879297
O       6.892500  11.520668   9.396483
O      10.677500  10.122232   5.879297
O      10.677500  11.520668   9.396483
O      14.462500  10.122232   5.879297
O      14.462500  11.520668   9.396483
O       6.892500   7.211507   5.000000
O       6.892500   8.609943   8.517186
O      10.677500   7.211507   5.000000
O      10.677500   8.609943   8.517186
O      14.462500   7.211507   5.000000
O      14.462500   8.609943   8.517186
O       5.000000  12.333738   5.000000
O       5.000000  13.732174   8.517186
O       8.785000  12.333738   5.000000
O       8.785000  13.732174   8.517186
O      12.570000  12.333738   5.000000
O      12.570000  13.732174   8.517186
O       5.000000   8.615399   6.478414
O       5.000000  10.013836   9.995601
O       8.785000   8.615399   6.478414
O       8.785000  10.013836   9.995601
O      12.570000   8.615399   6.478414
O      12.570000  10.013836   9.995601
O       6.892500  13.737630   6.478414
O       6.892500  15.136067   9.995601
O      10.677500  13.737630   6.478414
O      10.677500  15.136067   9.995601
O      14.462500  13.737630   6.478414
O      14.462500  15.136067   9.995601
O       6.892500   6.403893   7.357711
O       6.892500   7.802329  10.874897
O      10.677500   6.403893   7.357711
O      10.677500   7.802329  10.874897
O      14.462500   6.403893   7.357711
O      14.462500   7.802329  10.874897
O       5.000000  11.526124   7.357711
O       5.000000  12.924560  10.874897
O       8.785000  11.526124   7.357711
O       8.785000  12.924560  10.874897
O      12.570000  11.526124   7.357711
O      12.570000  12.924560  10.874897
